1329569114 0
1329569763 0
1329569878 0
1329570313 180
1329570488 180
1329573125 190
1329573773 199
1329574129 206
1329575334 212
1329575641 0
1329577158 74
1329657800 946
1329658594 946
1329669721 955
1329669817 955
1329670221 961
1329670321 961
1329670546 967
1329671279 967
